* ENCODING=ISO-8859-1
NAME          CPLEX
ROWS
 N  obj1    
 G  c1      
 G  c2      
 G  c3      
 G  c4      
 G  c5      
 G  c6      
 G  c7      
 G  c8      
 G  c9      
 G  c10     
 G  c11     
 G  c12     
 G  c13     
 G  c14     
 G  c15     
 G  c16     
 G  c17     
 G  c18     
 G  c19     
 G  c20     
 G  c21     
 G  c22     
 G  c23     
 G  c24     
 G  c25     
 G  c26     
 G  c27     
 G  c28     
 G  c29     
 G  c30     
 G  c31     
 G  c32     
 G  c33     
 G  c34     
 G  c35     
COLUMNS
    MARK0000  'MARKER'                 'INTORG'
    x1        obj1                            1
    x1        c3                            792
    x1        c19                           685
    x1        c28                           617
    x2        obj1                            1
    x2        c26                           606
    x2        c30                           598
    x3        obj1                            1
    x3        c6                            195
    x3        c22                           131
    x3        c26                           147
    x3        c33                           551
    x4        obj1                            1
    x4        c20                           537
    x5        obj1                            1
    x5        c3                            385
    x5        c6                            534
    x5        c14                           337
    x5        c18                           644
    x5        c23                           813
    x6        obj1                            1
    x6        c5                            275
    x6        c8                            887
    x6        c17                           755
    x6        c33                           881
    x6        c35                           568
    x7        obj1                            1
    x7        c1                            226
    x7        c3                            530
    x7        c8                            451
    x7        c17                           751
    x7        c34                           726
    x8        obj1                            1
    x8        c11                           311
    x8        c20                           458
    x8        c22                           194
    x8        c26                           834
    x9        obj1                            1
    x9        c16                           111
    x9        c30                           907
    x10       obj1                            1
    x10       c18                           326
    x10       c20                           546
    x10       c25                           631
    x10       c30                           114
    x10       c32                           151
    x10       c35                           249
    x11       obj1                            1
    x11       c17                           689
    x11       c28                           921
    x12       obj1                            1
    x12       c1                            854
    x12       c8                            572
    x12       c10                           138
    x12       c25                           733
    x12       c32                           796
    x12       c35                           939
    x13       obj1                            1
    x13       c6                            862
    x13       c12                           831
    x13       c16                           651
    x13       c19                           792
    x13       c23                           409
    x13       c28                           679
    x13       c32                           110
    x14       obj1                            1
    x15       obj1                            1
    x16       obj1                            1
    x16       c1                            434
    x16       c7                            434
    x16       c9                            765
    x16       c16                           529
    x16       c29                           870
    x16       c34                           200
    x17       obj1                            1
    x17       c15                           650
    x18       obj1                            1
    x18       c5                            831
    x18       c21                           452
    x18       c25                           734
    x18       c28                           294
    x19       obj1                            1
    x19       c1                            167
    x19       c4                            364
    x19       c10                           323
    x19       c15                           276
    x19       c20                           852
    x19       c23                           107
    x19       c35                           192
    x20       obj1                            1
    x20       c12                           632
    x20       c15                           542
    x21       obj1                            1
    x21       c11                           391
    x21       c13                           582
    x22       obj1                            1
    x22       c3                            698
    x22       c10                           549
    x22       c11                           382
    x22       c18                           496
    x22       c20                           640
    x22       c24                           513
    x22       c25                           331
    x22       c34                           553
    x22       c35                           853
    x23       obj1                            1
    x23       c4                            321
    x23       c6                            815
    x23       c8                            731
    x23       c9                            734
    x23       c24                           700
    x24       obj1                            1
    x24       c25                           513
    x25       obj1                            1
    x25       c3                            485
    x25       c18                           718
    x25       c31                           978
    x26       obj1                            1
    x26       c4                            156
    x26       c15                           955
    x26       c27                           763
    x26       c30                           428
    x27       obj1                            1
    x28       obj1                            1
    x28       c1                            636
    x28       c18                           185
    x28       c25                           165
    x28       c33                           900
    x29       obj1                            1
    x29       c6                            630
    x29       c21                           182
    x29       c26                           584
    x29       c29                           749
    x30       obj1                            1
    x30       c2                            637
    x30       c11                           131
    x31       obj1                            1
    x31       c13                           540
    x31       c15                           818
    x31       c30                           218
    x31       c31                           182
    x32       obj1                            1
    x32       c1                            806
    x32       c2                            581
    x32       c4                            609
    x32       c8                            304
    x32       c21                           972
    x32       c29                           715
    x33       obj1                            1
    x33       c1                            671
    x33       c12                           940
    x34       obj1                            1
    x34       c4                            881
    x35       obj1                            1
    x35       c7                            386
    x35       c11                           585
    x35       c23                           353
    x35       c32                           437
    x36       obj1                            1
    x36       c12                           245
    x36       c13                           448
    x36       c17                           838
    x36       c24                           967
    x36       c27                           350
    x36       c29                           481
    x36       c34                           632
    x37       obj1                            1
    x37       c18                           350
    x37       c30                           139
    x37       c34                           241
    x38       obj1                            1
    x38       c4                            632
    x38       c33                           397
    x39       obj1                            1
    x39       c15                           599
    x39       c30                           975
    x40       obj1                            1
    x40       c4                            200
    x40       c9                            504
    x40       c11                           447
    x40       c19                           613
    x40       c25                           535
    x40       c35                           169
    x41       obj1                            1
    x41       c5                            878
    x41       c18                           343
    x42       obj1                            1
    x42       c5                            877
    x42       c11                           566
    x42       c22                           873
    x42       c30                           915
    x42       c33                           598
    x43       obj1                            1
    x43       c7                            144
    x43       c11                           258
    x43       c34                           418
    x44       obj1                            1
    x44       c4                            612
    x44       c10                           379
    x44       c14                           523
    x44       c19                           795
    x44       c20                           809
    x44       c22                           855
    x44       c24                           487
    x44       c26                           200
    x45       obj1                            1
    x45       c12                           733
    x45       c13                           881
    x45       c15                           329
    x46       obj1                            1
    x47       obj1                            1
    x47       c33                           104
    x48       obj1                            1
    x48       c5                            849
    x49       obj1                            1
    x49       c1                            202
    x50       obj1                            1
    x50       c16                           616
    x50       c17                           957
    x50       c21                           245
    x50       c24                           345
    x50       c35                           601
    x51       obj1                            1
    x51       c3                            411
    x51       c15                           377
    x51       c16                           826
    x51       c23                           643
    x51       c24                           562
    x51       c25                           932
    x52       obj1                            1
    x52       c7                            403
    x52       c10                           656
    x52       c34                           969
    x53       obj1                            1
    x53       c2                            257
    x53       c7                            820
    x53       c10                           778
    x53       c21                           717
    x53       c24                           590
    x54       obj1                            1
    x55       obj1                            1
    x55       c1                            178
    x55       c9                            784
    x55       c16                           210
    x55       c25                           917
    x55       c28                           469
    x55       c29                           108
    x55       c34                           716
    x56       obj1                            1
    x56       c2                            743
    x56       c5                            968
    x56       c6                            249
    x57       obj1                            1
    x57       c19                           409
    x58       obj1                            1
    x58       c3                            748
    x58       c15                           584
    x58       c33                           579
    x59       obj1                            1
    x59       c28                           165
    x60       obj1                            1
    x60       c2                            305
    x60       c4                            548
    x60       c7                            157
    x61       obj1                            1
    x61       c5                            859
    x61       c12                           620
    x61       c26                           995
    x61       c28                           287
    x62       obj1                            1
    x62       c9                            497
    x62       c13                           207
    x62       c15                           168
    x62       c21                           891
    x62       c26                           921
    x62       c32                           755
    x63       obj1                            1
    x63       c6                            733
    x63       c7                            363
    x63       c9                            350
    x63       c14                           913
    x63       c17                           935
    x63       c18                           188
    x63       c27                           784
    x64       obj1                            1
    x64       c2                            111
    x64       c8                            234
    x65       obj1                            1
    x65       c18                           619
    x65       c20                           440
    x65       c21                           750
    x66       obj1                            1
    x66       c4                            588
    x66       c7                            492
    x66       c18                           220
    x66       c30                           355
    x66       c31                           913
    x66       c33                           816
    x67       obj1                            1
    x67       c11                           768
    x67       c14                           240
    x67       c29                           246
    x67       c31                           328
    x68       obj1                            1
    x68       c5                            840
    x68       c27                           867
    x69       obj1                            1
    x69       c20                           524
    x69       c24                           954
    x69       c28                           145
    x69       c34                           120
    x70       obj1                            1
    x70       c10                           439
    x70       c23                           196
    x70       c24                           850
    x70       c25                           345
    MARK0001  'MARKER'                 'INTEND'
RHS
    rhs       c1                           2087
    rhs       c2                           1317
    rhs       c3                           2025
    rhs       c4                           2456
    rhs       c5                           3189
    rhs       c6                           2009
    rhs       c7                           1600
    rhs       c8                           1590
    rhs       c9                           1817
    rhs       c10                          1631
    rhs       c11                          1920
    rhs       c12                          2001
    rhs       c13                          1329
    rhs       c14                          1007
    rhs       c15                          2649
    rhs       c16                          1472
    rhs       c17                          2463
    rhs       c18                          2045
    rhs       c19                          1647
    rhs       c20                          2403
    rhs       c21                          2105
    rhs       c22                          1027
    rhs       c23                          1261
    rhs       c24                          2984
    rhs       c25                          2918
    rhs       c26                          2144
    rhs       c27                          1382
    rhs       c28                          1789
    rhs       c29                          1585
    rhs       c30                          2325
    rhs       c31                          1201
    rhs       c32                          1125
    rhs       c33                          2413
    rhs       c34                          2288
    rhs       c35                          1786
BOUNDS
 LI bnd       x1        0
 LI bnd       x2        0
 LI bnd       x3        0
 LI bnd       x4        0
 LI bnd       x5        0
 LI bnd       x6        0
 LI bnd       x7        0
 LI bnd       x8        0
 LI bnd       x9        0
 LI bnd       x10       0
 LI bnd       x11       0
 LI bnd       x12       0
 LI bnd       x13       0
 LI bnd       x14       0
 LI bnd       x15       0
 LI bnd       x16       0
 LI bnd       x17       0
 LI bnd       x18       0
 LI bnd       x19       0
 LI bnd       x20       0
 LI bnd       x21       0
 LI bnd       x22       0
 LI bnd       x23       0
 LI bnd       x24       0
 LI bnd       x25       0
 LI bnd       x26       0
 LI bnd       x27       0
 LI bnd       x28       0
 LI bnd       x29       0
 LI bnd       x30       0
 LI bnd       x31       0
 LI bnd       x32       0
 LI bnd       x33       0
 LI bnd       x34       0
 LI bnd       x35       0
 LI bnd       x36       0
 LI bnd       x37       0
 LI bnd       x38       0
 LI bnd       x39       0
 LI bnd       x40       0
 LI bnd       x41       0
 LI bnd       x42       0
 LI bnd       x43       0
 LI bnd       x44       0
 LI bnd       x45       0
 LI bnd       x46       0
 LI bnd       x47       0
 LI bnd       x48       0
 LI bnd       x49       0
 LI bnd       x50       0
 LI bnd       x51       0
 LI bnd       x52       0
 LI bnd       x53       0
 LI bnd       x54       0
 LI bnd       x55       0
 LI bnd       x56       0
 LI bnd       x57       0
 LI bnd       x58       0
 LI bnd       x59       0
 LI bnd       x60       0
 LI bnd       x61       0
 LI bnd       x62       0
 LI bnd       x63       0
 LI bnd       x64       0
 LI bnd       x65       0
 LI bnd       x66       0
 LI bnd       x67       0
 LI bnd       x68       0
 LI bnd       x69       0
 LI bnd       x70       0
ENDATA
